GLPSOL: GLPK LP/MIP Solver, v4.55
Parameter(s) specified in the command line:
 -m tmp.mod
Reading model section from tmp.mod...
Reading data section from tmp.mod...
1748 lines were read
Generating obj...
Generating kirhoff...
Generating init_charge...
Generating batt_size...
Model has been successfully generated
GLPK Simplex Optimizer, v4.55
1798 rows, 2819 columns, 6044 non-zeros
Preprocessing...
1298 rows, 2712 columns, 5803 non-zeros
Scaling...
 A: min|aij| =  1.000e+00  max|aij| =  1.000e+00  ratio =  1.000e+00
Problem data seem to be well scaled
Constructing initial basis...
Size of triangular part is 1130
      0: obj =   0.000000000e+00  infeas =  2.170e+02 (168)
*   464: obj =   3.800000000e+01  infeas =  0.000e+00 (85)
*   500: obj =   3.400000000e+01  infeas =  0.000e+00 (85)
*   603: obj =   1.000000000e+01  infeas =  0.000e+00 (85)
OPTIMAL LP SOLUTION FOUND
Time used:   0.1 secs
Memory used: 5.6 Mb (5848746 bytes)
#OUTPUT:
10
-4 -11 -10 -1 0 -1 0 0 0 0 4 -6 -1 -11 1 4 -1 0 -4 -4 0 0 -9 0 0 -2 0 4 1 -2 -3 -2 -1 0 0 -1 1 -4 0 0 0 0 0 0 0 0 1 0 0 4 1 -2 0 -1 1 0 0 0 1 0 0 0 0 0 0 -1 0 -2 0 0 -1 -4 0 0 0 0 0 -1 0 0 0 0 0 0 0 0 0 0 -2 0 0 1 0 0 0 0 0 0 0 0 0 0 0 -2 0 0 0 1 0 0 0 0 0 0 0 0 0 0 0 1 3 0 -2 0 0 -1 0 0 0 0 1 0 0 0 0 3 0 -1 0 0 0 0 0 0 0 0 0 0 -3 -1 0 0 0 0 0 0 0 -1 -3 -1 3 0 0 0 0 -6 -1 0 0 0 0 3 -2 1 0 0 1 0 0 0 0 1 0 0 0 0 0 0 1 0 0 0 -3 2 0 0 1 0 0 -1 0 -3 1 0 1 0 0 0 0 1 3 0 0 0 0 0 0 0 0 0 0 0 0 0 0 0 0 0 0 0 0 0 0 0 0 0 0 0 0 0 0 0 
3 0 -3 0 0 0 0 0 0 0 6 -2 0 -1 0 0 5 0 -4 -4 0 1 -1 0 0 -2 0 0 1 -3 3 0 -1 0 0 0 -1 3 0 0 0 0 0 0 0 0 0 0 0 0 1 0 0 1 0 0 2 0 0 0 3 0 0 0 0 0 0 0 0 0 0 0 3 0 0 0 0 -1 -4 0 0 0 0 0 0 0 0 0 1 -1 0 0 0 0 0 0 0 0 0 0 0 0 0 0 0 0 0 0 0 0 0 0 0 0 0 0 0 0 0 0 0 0 0 0 0 0 0 0 0 0 0 0 0 0 0 0 0 0 0 0 0 0 0 0 0 0 0 0 -5 0 0 0 0 0 0 0 0 -1 -5 1 0 0 0 0 0 0 -1 0 0 0 0 0 0 0 -3 0 1 0 0 0 0 -1 1 0 0 0 0 0 0 0 0 0 0 0 0 0 0 0 0 0 0 0 0 0 0 0 0 0 0 1 5 0 0 0 0 0 0 0 0 0 0 0 0 0 0 0 0 0 0 0 0 0 0 0 0 0 0 0 0 0 0 0 
-3 -3 0 0 0 0 0 0 0 0 -5 -2 0 0 0 0 0 0 2 2 0 0 0 0 0 -2 0 0 1 0 -3 0 -1 0 0 0 0 -3 0 0 0 0 0 0 1 0 0 0 0 0 1 0 0 0 0 0 0 0 0 0 0 0 0 0 0 0 0 0 0 0 0 0 0 0 0 0 0 -1 0 0 0 0 0 0 0 0 0 0 0 0 0 0 0 0 0 0 0 0 0 0 0 -4 0 0 0 0 0 0 0 0 0 0 0 0 0 0 0 0 0 0 0 0 0 0 0 0 0 0 0 0 0 0 0 0 0 0 0 0 0 0 0 0 0 0 0 0 0 0 0 0 0 0 -1 0 0 0 0 -1 0 0 0 0 0 0 0 0 -1 0 0 0 0 0 0 0 0 0 1 -5 1 0 0 0 0 0 0 0 0 0 0 0 0 0 0 0 0 0 0 0 0 0 0 0 0 0 0 0 0 1 0 1 0 0 0 0 0 0 0 0 0 0 0 0 0 0 0 0 0 0 0 0 0 0 0 0 0 0 0 0 0 0 0 0 
-3 -9 -3 0 0 0 0 0 0 0 -6 -5 0 0 0 0 0 0 -3 -3 0 -1 0 0 -1 -1 0 0 0 -2 -3 0 -1 0 0 0 0 -4 0 0 0 0 1 0 1 0 1 0 0 0 0 0 0 0 0 0 0 0 0 0 0 0 0 0 1 0 0 -1 0 -1 0 -4 0 0 0 0 0 0 0 -2 0 0 0 0 0 0 0 0 0 0 0 0 0 0 0 0 0 0 0 0 0 -8 0 0 0 0 0 0 0 0 0 0 0 0 0 0 0 0 0 0 3 0 0 0 0 0 0 0 0 4 0 0 0 0 0 0 0 0 0 0 0 0 0 0 0 0 0 0 0 0 -1 0 -1 -3 0 0 -12 0 0 0 0 0 -2 0 0 0 0 0 0 0 0 0 0 1 0 0 0 -5 -1 0 0 0 0 0 0 0 0 0 0 0 0 0 -3 0 0 0 0 0 -1 0 0 0 0 0 0 0 1 1 3 0 0 0 0 0 0 0 0 0 0 0 0 0 0 0 0 0 0 0 0 0 0 0 0 0 0 0 0 0 0 0 0 0 
-3 -11 -8 -2 -2 0 0 0 0 0 -5 -6 -2 0 0 4 -5 0 -4 -4 0 -3 0 0 0 0 0 4 1 0 -1 -2 0 0 0 0 0 0 0 0 -1 0 0 0 0 0 -1 0 0 4 2 -2 0 1 0 -1 -2 0 3 0 -11 0 0 0 0 0 2 -2 -1 0 0 -6 3 0 0 0 0 0 0 1 0 0 -1 0 0 0 0 0 0 -2 0 0 0 -1 0 0 0 1 -5 0 0 0 1 -2 0 1 1 0 0 0 0 0 0 0 0 0 0 0 0 0 2 0 0 0 0 0 0 1 0 0 0 0 0 0 0 0 0 0 0 0 0 0 0 0 0 0 0 0 -10 0 0 0 0 0 0 0 0 -1 8 2 0 1 0 0 0 -6 -2 0 0 0 0 0 0 -1 3 0 0 -1 0 0 0 0 1 0 0 -1 6 -1 2 -1 0 0 -2 0 0 0 0 -1 0 0 0 0 0 0 0 0 0 0 0 1 -8 0 0 0 0 0 0 0 0 0 0 0 0 0 0 0 0 0 0 0 0 0 0 0 0 0 0 0 0 0 0 0 
#OUTPUT END
Model has been successfully processed
